10	6	3.9
2 6 1 1 2 7 3 2 4 5 5 2 6 8 4 2 2 3 2 4 8 5 1
2 4 1 8 2 1 3 6 6 2 4 1 2 2 2 4 4 5 5
2 3 3 3 5 3 6 8 2 4 3 5 9
2 1 5 8 5 1 3 2 4 4 6 5 1 6 5
2 3 1 7 3 2 6 4 5 1 6 2 3 4 5 5 3 6 2
2 2 1 3 4 6 2 3 7 6 4
2 4 1 2 3 8 4 6 5 7 1 3 2
2 6 1 8 2 8 3 1 4 5 5 4 6 4 3 2 4 3 7 5 4
2 6 1 5 2 9 3 4 4 1 5 1 6 8 6 1 6 2 3 3 9 4 1 5 4 6 6
2 5 1 2 3 7 4 5 5 3 6 4 6 1 4 2 5 3 9 4 9 5 9 6 8
